Name:       TESTE
Optimal value:   -1
#Vehicles:   -1
Capacity:    5
Depot Node:  1
#Nodes:      4
#Edges:      3
#Arcs:       2
#Required N: 0
#Required E: 2
#Required A: 1

ReN.

ReE.
E1 1 2 2 1 1
E2 2 3 2 1 1

NrE3 3 4 5

ReA.
A1 1 3 3 1 1

NrA2 4 2 4
